networks/zoo_50_481/zoo_50_481-lower.sol
<?xml version = "1.0" encoding="UTF-8" standalone="yes"?>
<CPLEXSolution version="1.2">
 <header
   problemName="networks/zoo_50_481/zoo_50_481-lower.lp"
   solutionName="incumbent"
   solutionIndex="-1"
   objectiveValue="25"
   solutionTypeValue="3"
   solutionTypeString="primal"
   solutionStatusValue="101"
   solutionStatusString="integer optimal solution"
   solutionMethodString="mip"
   primalFeasible="1"
   dualFeasible="1"
   MIPNodes="0"
   MIPIterations="0"
   writeLevel="3"/>
 <quality
   epInt="1.0000000000000001e-05"
   epRHS="9.9999999999999995e-07"
   maxIntInfeas="0"
   maxPrimalInfeas="0"
   maxX="1"
   maxSlack="1"/>
 <variables>
  <variable name="Y(1,2)" index="1" value="1"/>
  <variable name="Y(2,3)" index="52" value="1"/>
  <variable name="Y(3,4)" index="103" value="1"/>
  <variable name="Y(4,5)" index="154" value="1"/>
  <variable name="Y(5,6)" index="205" value="1"/>
  <variable name="Y(6,7)" index="256" value="1"/>
  <variable name="Y(7,8)" index="307" value="1"/>
  <variable name="Y(8,15)" index="364" value="1"/>
  <variable name="Y(9,23)" index="422" value="1"/>
  <variable name="Y(10,24)" index="473" value="1"/>
  <variable name="Y(11,25)" index="524" value="1"/>
  <variable name="Y(12,1)" index="550" value="1"/>
  <variable name="Y(19,9)" index="908" value="1"/>
  <variable name="Y(20,10)" index="959" value="1"/>
  <variable name="Y(21,11)" index="1010" value="1"/>
  <variable name="Y(22,12)" index="1061" value="1"/>
  <variable name="Y(23,13)" index="1112" value="1"/>
  <variable name="Y(24,14)" index="1163" value="1"/>
  <variable name="Y(26,16)" index="1265" value="1"/>
  <variable name="Y(27,17)" index="1316" value="1"/>
  <variable name="Y(28,18)" index="1367" value="1"/>
  <variable name="Y(29,19)" index="1418" value="1"/>
  <variable name="Y(30,20)" index="1469" value="1"/>
  <variable name="Y(31,21)" index="1520" value="1"/>
  <variable name="Y(32,22)" index="1571" value="1"/>
  <variable name="X(1,4,1)" index="24050" value="1"/>
  <variable name="X(1,26,12)" index="24542" value="1"/>
  <variable name="X(2,3,13)" index="25024" value="1"/>
  <variable name="X(2,4,12)" index="25504" value="1"/>
  <variable name="X(2,7,4)" index="25977" value="1"/>
  <variable name="X(2,11,21)" index="26475" value="1"/>
  <variable name="X(2,12,22)" index="26957" value="1"/>
  <variable name="X(2,15,8)" index="27424" value="1"/>
  <variable name="X(2,22,32)" index="27929" value="1"/>
  <variable name="X(2,27,1)" index="28379" value="1"/>
  <variable name="X(3,2,37)" index="28896" value="1"/>
  <variable name="X(3,4,36)" index="29376" value="1"/>
  <variable name="X(3,14,24)" index="29845" value="1"/>
  <variable name="X(3,17,23)" index="30325" value="1"/>
  <variable name="X(3,28,2)" index="30785" value="1"/>
  <variable name="X(4,1,12)" index="31276" value="1"/>
  <variable name="X(4,2,1)" index="31746" value="1"/>
  <variable name="X(4,3,2)" index="32228" value="1"/>
  <variable name="X(4,10,20)" index="32727" value="1"/>
  <variable name="X(4,29,3)" index="33191" value="1"/>
  <variable name="X(5,25,82)" index="33751" value="1"/>
  <variable name="X(5,30,4)" index="34154" value="1"/>
  <variable name="X(6,7,105)" index="34736" value="1"/>
  <variable name="X(6,9,19)" index="35131" value="1"/>
  <variable name="X(6,21,31)" index="35624" value="1"/>
  <variable name="X(6,25,109)" index="36183" value="1"/>
  <variable name="X(6,31,5)" index="36560" value="1"/>
  <variable name="X(7,2,82)" index="37118" value="1"/>
  <variable name="X(7,6,5)" index="37522" value="1"/>
  <variable name="X(7,8,7)" index="38005" value="1"/>
  <variable name="X(7,25,4)" index="38483" value="1"/>
  <variable name="X(7,32,6)" index="38966" value="1"/>
  <variable name="X(8,7,140)" index="39581" value="1"/>
  <variable name="X(8,23,9)" index="39931" value="1"/>
  <variable name="X(8,33,7)" index="40410" value="1"/>
  <variable name="X(9,6,164)" index="41048" value="1"/>
  <variable name="X(9,34,19)" index="41384" value="1"/>
  <variable name="X(10,4,187)" index="42033" value="1"/>
  <variable name="X(10,35,20)" index="42347" value="1"/>
  <variable name="X(11,2,195)" index="43003" value="1"/>
  <variable name="X(11,36,21)" index="43310" value="1"/>
  <variable name="X(12,2,210)" index="43980" value="1"/>
  <variable name="X(12,37,22)" index="44273" value="1"/>
  <variable name="X(13,17,222)" index="44954" value="1"/>
  <variable name="X(13,38,23)" index="45236" value="1"/>
  <variable name="X(14,3,244)" index="45938" value="1"/>
  <variable name="X(14,39,24)" index="46199" value="1"/>
  <variable name="X(15,2,260)" index="46916" value="1"/>
  <variable name="X(15,40,8)" index="47145" value="1"/>
  <variable name="X(16,25,281)" index="47899" value="1"/>
  <variable name="X(16,41,26)" index="48125" value="1"/>
  <variable name="X(17,3,222)" index="48802" value="1"/>
  <variable name="X(17,13,23)" index="49084" value="1"/>
  <variable name="X(17,42,27)" index="49569" value="1"/>
  <variable name="X(18,25,321)" index="50344" value="1"/>
  <variable name="X(18,43,28)" index="50532" value="1"/>
  <variable name="X(19,25,331)" index="51316" value="1"/>
  <variable name="X(19,44,29)" index="51495" value="1"/>
  <variable name="X(20,25,343)" index="52290" value="1"/>
  <variable name="X(20,45,30)" index="52458" value="1"/>
  <variable name="X(21,6,365)" index="53274" value="1"/>
  <variable name="X(21,46,31)" index="53421" value="1"/>
  <variable name="X(22,2,389)" index="54260" value="1"/>
  <variable name="X(22,47,32)" index="54384" value="1"/>
  <variable name="X(23,8,411)" index="55244" value="1"/>
  <variable name="X(23,48,9)" index="55323" value="1"/>
  <variable name="X(24,25,435)" index="56230" value="1"/>
  <variable name="X(24,49,10)" index="56286" value="1"/>
  <variable name="X(25,5,4)" index="56761" value="1"/>
  <variable name="X(25,6,86)" index="57324" value="1"/>
  <variable name="X(25,7,82)" index="57801" value="1"/>
  <variable name="X(25,16,26)" index="58226" value="1"/>
  <variable name="X(25,18,28)" index="58709" value="1"/>
  <variable name="X(25,19,29)" index="59191" value="1"/>
  <variable name="X(25,20,30)" index="59673" value="1"/>
  <variable name="X(25,24,10)" index="60134" value="1"/>
  <variable name="X(25,50,11)" index="60616" value="1"/>
 </variables>
</CPLEXSolution>
